c FILE /home/rafael/Documents/HappySet/MIHS/inputs/happygen/output/graph_d_regular_k3_p0.2_v100_20241127_084010.txt
c SOURCE This is a d-regular graph formed for the happy graph colouring problem.
c DESCRIPTION It was generated using the problem generator of Rhyd Lewis
c
c GRAPH STATS
c Seed                             = 892318685
c Number of Nodes                  = 100
c Number of colours k              = 3
c Number of pre-assignments        = 20
c Degree of all vertices           = 6
c Density                          = 0.0606061
c 
c The degrees of nodes 1 to 100, respectively, are as follows 
c [6, 6, 6, 6, 6, 6, 6, 6, 6, 6, 6, 6, 6, 6, 6, 6, 6, 6, 6, 6, 6, 6, 6, 6, 6, 6, 
c  6, 6, 6, 6, 6, 6, 6, 6, 6, 6, 6, 6, 6, 6, 6, 6, 6, 6, 6, 6, 6, 6, 6, 6, 6, 
c  6, 6, 6, 6, 6, 6, 6, 6, 6, 6, 6, 6, 6, 6, 6, 6, 6, 6, 6, 6, 6, 6, 6, 6, 6, 
c  6, 6, 6, 6, 6, 6, 6, 6, 6, 6, 6, 6, 6, 6, 6, 6, 6, 6, 6, 6, 6, 6, 6, 6] 
c  
p edge 100 300 3
e 1 14
e 1 52
e 1 65
e 1 77
e 1 78
e 1 95
e 2 14
e 2 22
e 2 31
e 2 34
e 2 68
e 2 73
e 3 7
e 3 16
e 3 31
e 3 39
e 3 50
e 3 98
e 4 12
e 4 40
e 4 46
e 4 48
e 4 63
e 4 68
e 5 25
e 5 29
e 5 35
e 5 60
e 5 67
e 5 86
e 6 12
e 6 47
e 6 49
e 6 58
e 6 76
e 6 92
e 7 19
e 7 28
e 7 33
e 7 52
e 7 86
e 8 18
e 8 29
e 8 30
e 8 67
e 8 73
e 8 99
e 9 36
e 9 67
e 9 76
e 9 78
e 9 84
e 9 89
e 10 12
e 10 20
e 10 30
e 10 49
e 10 57
e 10 88
e 11 27
e 11 48
e 11 76
e 11 83
e 11 84
e 11 95
e 12 28
e 12 57
e 12 100
e 13 29
e 13 32
e 13 33
e 13 72
e 13 90
e 13 97
e 14 30
e 14 78
e 14 91
e 14 100
e 15 16
e 15 45
e 15 47
e 15 66
e 15 77
e 15 83
e 16 19
e 16 33
e 16 79
e 16 99
e 17 22
e 17 52
e 17 53
e 17 77
e 17 81
e 17 90
e 18 19
e 18 23
e 18 25
e 18 56
e 18 80
e 19 41
e 19 51
e 19 66
e 20 27
e 20 32
e 20 51
e 20 65
e 20 82
e 21 28
e 21 43
e 21 45
e 21 71
e 21 82
e 21 85
e 22 49
e 22 53
e 22 60
e 22 75
e 23 46
e 23 54
e 23 61
e 23 62
e 23 79
e 24 36
e 24 37
e 24 57
e 24 68
e 24 73
e 24 94
e 25 30
e 25 49
e 25 82
e 25 94
e 26 39
e 26 41
e 26 68
e 26 75
e 26 94
e 26 98
e 27 69
e 27 81
e 27 95
e 27 98
e 28 51
e 28 61
e 28 78
e 29 34
e 29 38
e 29 49
e 30 71
e 30 88
e 31 68
e 31 70
e 31 90
e 31 93
e 32 39
e 32 43
e 32 55
e 32 57
e 33 41
e 33 67
e 33 75
e 34 46
e 34 60
e 34 72
e 34 82
e 35 37
e 35 57
e 35 65
e 35 74
e 35 78
e 36 42
e 36 79
e 36 91
e 36 97
e 37 50
e 37 53
e 37 74
e 37 84
e 38 59
e 38 61
e 38 70
e 38 81
e 38 87
e 39 53
e 39 61
e 39 68
e 40 63
e 40 74
e 40 91
e 40 93
e 40 96
e 41 71
e 41 72
e 41 96
e 42 51
e 42 67
e 42 72
e 42 97
e 42 98
e 43 44
e 43 59
e 43 86
e 43 95
e 44 48
e 44 50
e 44 65
e 44 70
e 44 81
e 45 63
e 45 84
e 45 86
e 45 87
e 46 54
e 46 90
e 46 99
e 47 50
e 47 70
e 47 89
e 47 91
e 48 87
e 48 93
e 48 95
e 49 58
e 50 55
e 50 88
e 51 69
e 51 74
e 52 55
e 52 62
e 52 94
e 53 85
e 53 95
e 54 65
e 54 73
e 54 84
e 54 90
e 55 88
e 55 98
e 55 99
e 56 58
e 56 59
e 56 63
e 56 77
e 56 92
e 57 91
e 58 64
e 58 80
e 58 96
e 59 72
e 59 83
e 59 97
e 60 78
e 60 89
e 60 100
e 61 76
e 61 92
e 62 64
e 62 80
e 62 87
e 62 92
e 63 81
e 63 94
e 64 76
e 64 80
e 64 89
e 64 93
e 65 83
e 66 75
e 66 77
e 66 79
e 66 87
e 67 96
e 69 75
e 69 84
e 69 86
e 69 97
e 70 73
e 70 79
e 71 80
e 71 97
e 71 100
e 72 75
e 73 82
e 74 82
e 74 89
e 76 77
e 79 87
e 80 83
e 81 100
e 83 91
e 85 90
e 85 92
e 85 94
e 85 99
e 86 88
e 88 89
e 92 93
e 93 98
e 96 99
e 96 100
n 6 2
n 8 3
n 32 3
n 34 3
n 40 1
n 43 3
n 47 2
n 48 1
n 51 1
n 54 2
n 55 3
n 58 2
n 61 3
n 62 2
n 69 1
n 72 3
n 81 1
n 85 2
n 97 1
n 98 3
